17	4
15	15	18	17	
0	0	0	0	0	3	2	3	4	
7	2	1	5	5	3	6	11	17	
4	5	1	4	10	1	5	
4	7	6	1	4	3	8	9	16	
2	4	6	5	5	3	7	13	17	
75	2	3	2	5	1	12	
250	8	4	2	7	2	15	17	
75	9	9	3	1	3	17	17	17	
75	3	7	5	5	2	10	15	
75	7	2	7	2	2	11	14	
250	3	3	10	9	2	12	17	
75	3	4	10	5	3	13	17	17	
8	7	4	3	8	1	17	
5	10	6	3	8	2	17	17	
7	5	5	4	2	2	17	17	
5	8	2	4	7	1	17	
0	0	0	0	0	0	
